1bicikli_generic/bringa.out
Problem:    bringa
Rows:       2
Columns:    1 (1 integer, 1 binary)
Non-zeros:  2
Status:     INTEGER OPTIMAL
Objective:  bevetel = 8910 (MAXimum)

   No.   Row name        Activity     Lower bound   Upper bound
------ ------------    ------------- ------------- -------------
     1 extra_space_logic
                                   0         -1046               
     2 bevetel                     0                             

   No. Column name       Activity     Lower bound   Upper bound
------ ------------    ------------- ------------- -------------
     1 extra_tarthely
                    *              0             0             1 

Integer feasibility conditions:

KKT.PE: max.abs.err = 0.00e+00 on row 0
        max.rel.err = 0.00e+00 on row 0
        High quality

KKT.PB: max.abs.err = 0.00e+00 on row 0
        max.rel.err = 0.00e+00 on row 0
        High quality

End of output
